sat
(model 
  (define-fun y () (_ FloatingPoint 11 53)
    (_ -zero 11 53))
  (define-fun x () (_ FloatingPoint 11 53)
    (_ +zero 11 53))
)
sat
(model 
  (define-fun y () (_ FloatingPoint 11 53)
    (_ +zero 11 53))
  (define-fun x () (_ FloatingPoint 11 53)
    (_ -zero 11 53))
)
